192 300 186 173 190 154 156 173 183 185 196 185 187 178 184 196 164 189 181 154 194 197 191 165 164 172 175 164 176 159 181 191 194 166 189 183 196 195 180 152 153 176 161 190 178 195 159 192 157 191 197 151 187 161 191 176 157 190 164 183 173 195 199 166 186 187 173 155 155 153 157 159 153 168 199 181 187 183 172 194 173 193 169 184 153 184 184 161 173 198 168 196 193 166 186 152 177 159 157 183 162 189 166 190 156 189 170 167 171 166 160 168 159 154 177 162 188 160 198 186 183 191 155 200 181 192 151 158 175 158 165 161 197 181 150 177 169 170 194 191 186 178 158 169 156 185 182 169 170 153 179 152 168 184 151 200 175 177 157 174 159 172 185 180 177 185 156 196 179 174 160 190 176 194 158 183 152 164 176 172 168 154 199 160 188 174 159 188 175 166 161 184 162 197 